DIMENSION: 7
EDGE_WEIGHT_TYPE: EXPLICIT
EDGE_WEIGHT_FORMAT: FULL_MATRIX
EDGE_WEIGHT_SECTION:
32767 24 32767 27 32767 32767 60 
24 32767 32767 98 32767 32767 32767 
32767 32767 32767 32767 71 32767 32767 
27 98 32767 32767 32767 13 32767 
32767 32767 71 32767 32767 6 32767 
32767 32767 32767 13 6 32767 54 
60 32767 32767 32767 32767 54 32767 
EOF